data;

param n:=24;
param p:=4;
param r:=[1] 0 [2] 1 [3] 7 [4] 3 [5] 3 [6] 10 [7] 9 [8] 21 [9] 20 [10] 4 [11] 28 [12] 27 [13] 30 [14] 28 [15] 19 [16] 19 [17] 29 [18] 5 [19] 8 [20] 66 [21] 7 [22] 43 [23] 51 [24] 27 ;
param w:=[1] 60 [2] 34 [3] 67 [4] 96 [5] 31 [6] 41 [7] 62 [8] 50 [9] 10 [10] 67 [11] 72 [12] 24 [13] 12 [14] 96 [15] 21 [16] 7 [17] 28 [18] 27 [19] 69 [20] 65 [21] 8 [22] 85 [23] 20 [24] 75 ;

end;
